100 1296476485
27 94 95 20 50 65 29 81 37 66 48 45 1 4 73 100 16 13 83 86 9 85 41 54 42 12 31 89 71 33 68 91 21 60 78 52 59 8 49 53 24 7 69 98 11 96 5 2 74 76 36 97 90 17 25 44 46 14 67 63 47 34 18 99 22 3 43 40 87 72 61 88 39 58 92 32 30 38 93 56 64 84 79 57 70 82 6 10 35 55 19 15 23 26 75 77 51 62 28 80 
